(set-info :status unsat)
(declare-const symbol_225 (_ BitVec 32))
(declare-const symbol_498 (_ BitVec 32))
(declare-const symbol_422 (_ BitVec 32))
(declare-const symbol_240 (_ BitVec 32))
(declare-const symbol_510 (_ BitVec 32))
(declare-const symbol_197 (_ BitVec 32))
(declare-const symbol_293 (_ BitVec 32))
(declare-const symbol_541 (_ BitVec 32))
(declare-const symbol_156 (_ BitVec 32))
(declare-const symbol_110 (_ BitVec 32))
(declare-const symbol_388 (_ BitVec 32))
(declare-const symbol_193 (_ BitVec 32))
(declare-const symbol_257 (_ BitVec 32))
(declare-const symbol_250 (_ BitVec 32))
(declare-const symbol_167 (_ BitVec 32))
(declare-const symbol_289 (_ BitVec 32))
(declare-const symbol_171 (_ BitVec 32))
(declare-const symbol_26 (_ BitVec 32))
(declare-const symbol_15 (_ BitVec 32))
(declare-const symbol_104 (_ BitVec 32))
(declare-const symbol_44 (_ BitVec 32))
(declare-const symbol_485 (_ BitVec 32))
(declare-const symbol_251 (_ BitVec 32))
(declare-const symbol_398 (_ BitVec 32))
(declare-const symbol_96 (_ BitVec 32))
(declare-const symbol_396 (_ BitVec 32))
(declare-const symbol_255 (_ BitVec 32))
(declare-const symbol_531 (_ BitVec 32))
(declare-const symbol_465 (_ BitVec 32))
(declare-const symbol_311 (_ BitVec 32))
(declare-const symbol_24 (_ BitVec 32))
(declare-const symbol_370 (_ BitVec 32))
(declare-const symbol_185 (_ BitVec 32))
(declare-const symbol_441 (_ BitVec 32))
(declare-const symbol_418 (_ BitVec 32))
(declare-const symbol_67 (_ BitVec 32))
(declare-const symbol_481 (_ BitVec 32))
(declare-const symbol_234 (_ BitVec 32))
(declare-const symbol_380 (_ BitVec 32))
(declare-const symbol_493 (_ BitVec 32))
(declare-const symbol_200 (_ BitVec 32))
(declare-const symbol_463 (_ BitVec 32))
(declare-const symbol_278 (_ BitVec 32))
(declare-const symbol_429 (_ BitVec 32))
(declare-const symbol_343 (_ BitVec 32))
(declare-const symbol_455 (_ BitVec 32))
(declare-const symbol_2 (_ BitVec 32))
(declare-const symbol_350 (_ BitVec 32))
(declare-const symbol_199 (_ BitVec 32))
(declare-const symbol_20 (_ BitVec 32))
(declare-const symbol_477 (_ BitVec 32))
(declare-const symbol_459 (_ BitVec 32))
(declare-const symbol_400 (_ BitVec 32))
(declare-const symbol_504 (_ BitVec 32))
(declare-const symbol_12 (_ BitVec 32))
(declare-const symbol_369 (_ BitVec 32))
(declare-const symbol_238 (_ BitVec 32))
(declare-const symbol_273 (_ BitVec 32))
(declare-const symbol_215 (_ BitVec 32))
(declare-const symbol_76 (_ BitVec 32))
(declare-const symbol_309 (_ BitVec 32))
(declare-const symbol_506 (_ BitVec 32))
(declare-const symbol_187 (_ BitVec 32))
(declare-const symbol_90 (_ BitVec 32))
(declare-const symbol_55 (_ BitVec 32))
(declare-const symbol_321 (_ BitVec 32))
(declare-const symbol_361 (_ BitVec 32))
(declare-const symbol_160 (_ BitVec 32))
(declare-const symbol_175 (_ BitVec 32))
(declare-const symbol_112 (_ BitVec 32))
(declare-const symbol_535 (_ BitVec 32))
(declare-const symbol_410 (_ BitVec 32))
(declare-const symbol_461 (_ BitVec 32))
(declare-const symbol_372 (_ BitVec 32))
(declare-const symbol_431 (_ BitVec 32))
(declare-const symbol_356 (_ BitVec 32))
(declare-const symbol_295 (_ BitVec 32))
(declare-const symbol_319 (_ BitVec 32))
(declare-const symbol_394 (_ BitVec 32))
(declare-const symbol_378 (_ BitVec 32))
(declare-const symbol_141 (_ BitVec 32))
(declare-const symbol_539 (_ BitVec 32))
(declare-const symbol_204 (_ BitVec 32))
(declare-const symbol_116 (_ BitVec 32))
(declare-const symbol_85 (_ BitVec 32))
(declare-const symbol_514 (_ BitVec 32))
(declare-const symbol_345 (_ BitVec 32))
(declare-const symbol_4 (_ BitVec 32))
(declare-const symbol_135 (_ BitVec 32))
(declare-const symbol_451 (_ BitVec 32))
(declare-const symbol_291 (_ BitVec 32))
(declare-const symbol_315 (_ BitVec 32))
(declare-const symbol_230 (_ BitVec 32))
(declare-const symbol_161 (_ BitVec 32))
(declare-const symbol_259 (_ BitVec 32))
(declare-const symbol_525 (_ BitVec 32))
(declare-const symbol_473 (_ BitVec 32))
(declare-const symbol_183 (_ BitVec 32))
(declare-const symbol_108 (_ BitVec 32))
(declare-const symbol_427 (_ BitVec 32))
(declare-const symbol_61 (_ BitVec 32))
(declare-const symbol_145 (_ BitVec 32))
(declare-const symbol_126 (_ BitVec 32))
(declare-const symbol_423 (_ BitVec 32))
(declare-const symbol_280 (_ BitVec 32))
(declare-const symbol_100 (_ BitVec 32))
(declare-const symbol_57 (_ BitVec 32))
(declare-const symbol_263 (_ BitVec 32))
(declare-const symbol_94 (_ BitVec 32))
(declare-const symbol_72 (_ BitVec 32))
(declare-const symbol_191 (_ BitVec 32))
(declare-const symbol_341 (_ BitVec 32))
(declare-const symbol_173 (_ BitVec 32))
(declare-const symbol_390 (_ BitVec 32))
(declare-const symbol_359 (_ BitVec 32))
(declare-const symbol_333 (_ BitVec 32))
(declare-const symbol_147 (_ BitVec 32))
(declare-const symbol_266 (_ BitVec 32))
(declare-const symbol_518 (_ BitVec 32))
(declare-const symbol_469 (_ BitVec 32))
(declare-const symbol_120 (_ BitVec 32))
(declare-const symbol_307 (_ BitVec 32))
(declare-const symbol_124 (_ BitVec 32))
(declare-const symbol_206 (_ BitVec 32))
(declare-const symbol_53 (_ BitVec 32))
(declare-const symbol_276 (_ BitVec 32))
(declare-const symbol_268 (_ BitVec 32))
(declare-const symbol_138 (_ BitVec 32))
(declare-const symbol_69 (_ BitVec 32))
(declare-const symbol_8 (_ BitVec 32))
(declare-const symbol_195 (_ BitVec 32))
(declare-const symbol_114 (_ BitVec 32))
(declare-const symbol_245 (_ BitVec 32))
(declare-const symbol_81 (_ BitVec 32))
(declare-const symbol_386 (_ BitVec 32))
(declare-const symbol_48 (_ BitVec 32))
(declare-const symbol_406 (_ BitVec 32))
(declare-const symbol_420 (_ BitVec 32))
(declare-const symbol_317 (_ BitVec 32))
(declare-const symbol_483 (_ BitVec 32))
(declare-const symbol_475 (_ BitVec 32))
(declare-const symbol_226 (_ BitVec 32))
(declare-const symbol_78 (_ BitVec 32))
(declare-const symbol_520 (_ BitVec 32))
(declare-const symbol_189 (_ BitVec 32))
(declare-const symbol_42 (_ BitVec 32))
(declare-const symbol_447 (_ BitVec 32))
(declare-const symbol_471 (_ BitVec 32))
(declare-const symbol_496 (_ BitVec 32))
(declare-const symbol_425 (_ BitVec 32))
(declare-const symbol_106 (_ BitVec 32))
(declare-const symbol_130 (_ BitVec 32))
(declare-const symbol_137 (_ BitVec 32))
(declare-const symbol_491 (_ BitVec 32))
(declare-const symbol_382 (_ BitVec 32))
(declare-const symbol_102 (_ BitVec 32))
(declare-const symbol_433 (_ BitVec 32))
(declare-const symbol_128 (_ BitVec 32))
(declare-const symbol_327 (_ BitVec 32))
(declare-const symbol_301 (_ BitVec 32))
(declare-const symbol_284 (_ BitVec 32))
(declare-const symbol_28 (_ BitVec 32))
(declare-const symbol_352 (_ BitVec 32))
(declare-const symbol_158 (_ BitVec 32))
(declare-const symbol_443 (_ BitVec 32))
(declare-const symbol_323 (_ BitVec 32))
(declare-const symbol_335 (_ BitVec 32))
(declare-const symbol_489 (_ BitVec 32))
(declare-const symbol_348 (_ BitVec 32))
(declare-const symbol_529 (_ BitVec 32))
(declare-const symbol_329 (_ BitVec 32))
(declare-const symbol_181 (_ BitVec 32))
(declare-const symbol_47 (_ BitVec 32))
(declare-const symbol_516 (_ BitVec 32))
(declare-const symbol_365 (_ BitVec 32))
(declare-const symbol_14 (_ BitVec 32))
(declare-const symbol_408 (_ BitVec 32))
(declare-const symbol_221 (_ BitVec 32))
(declare-const symbol_467 (_ BitVec 32))
(declare-const symbol_74 (_ BitVec 32))
(declare-const symbol_22 (_ BitVec 32))
(declare-const symbol_439 (_ BitVec 32))
(declare-const symbol_219 (_ BitVec 32))
(declare-const symbol_228 (_ BitVec 32))
(declare-const symbol_297 (_ BitVec 32))
(declare-const symbol_449 (_ BitVec 32))
(declare-const symbol_358 (_ BitVec 32))
(declare-const symbol_287 (_ BitVec 32))
(declare-const symbol_244 (_ BitVec 32))
(declare-const symbol_40 (_ BitVec 32))
(declare-const symbol_30 (_ BitVec 32))
(declare-const symbol_367 (_ BitVec 32))
(declare-const symbol_300 (_ BitVec 32))
(declare-const symbol_494 (_ BitVec 32))
(declare-const symbol_416 (_ BitVec 32))
(declare-const symbol_151 (_ BitVec 32))
(declare-const symbol_98 (_ BitVec 32))
(declare-const symbol_404 (_ BitVec 32))
(declare-const symbol_242 (_ BitVec 32))
(declare-const symbol_39 (_ BitVec 32))
(declare-const symbol_223 (_ BitVec 32))
(declare-const symbol_337 (_ BitVec 32))
(declare-const symbol_331 (_ BitVec 32))
(declare-const symbol_261 (_ BitVec 32))
(declare-const symbol_32 (_ BitVec 32))
(declare-const symbol_232 (_ BitVec 32))
(declare-const symbol_305 (_ BitVec 32))
(declare-const symbol_512 (_ BitVec 32))
(declare-const symbol_346 (_ BitVec 32))
(declare-const symbol_163 (_ BitVec 32))
(declare-const symbol_523 (_ BitVec 32))
(declare-const symbol_303 (_ BitVec 32))
(declare-const symbol_118 (_ BitVec 32))
(declare-const symbol_153 (_ BitVec 32))
(declare-const symbol_149 (_ BitVec 32))
(declare-const symbol_527 (_ BitVec 32))
(declare-const symbol_414 (_ BitVec 32))
(declare-const symbol_457 (_ BitVec 32))
(declare-const symbol_209 (_ BitVec 32))
(declare-const symbol_354 (_ BitVec 32))
(declare-const symbol_384 (_ BitVec 32))
(declare-const symbol_253 (_ BitVec 32))
(declare-const symbol_63 (_ BitVec 32))
(declare-const symbol_435 (_ BitVec 32))
(declare-const symbol_374 (_ BitVec 32))
(declare-const symbol_143 (_ BitVec 32))
(declare-const symbol_10 (_ BitVec 32))
(declare-const symbol_0 (_ BitVec 32))
(declare-const symbol_487 (_ BitVec 32))
(declare-const symbol_392 (_ BitVec 32))
(declare-const symbol_521 (_ BitVec 32))
(declare-const symbol_92 (_ BitVec 32))
(declare-const symbol_179 (_ BitVec 32))
(declare-const symbol_65 (_ BitVec 32))
(declare-const symbol_248 (_ BitVec 32))
(declare-const symbol_270 (_ BitVec 32))
(declare-const symbol_133 (_ BitVec 32))
(declare-const symbol_34 (_ BitVec 32))
(declare-const symbol_479 (_ BitVec 32))
(declare-const symbol_325 (_ BitVec 32))
(declare-const symbol_236 (_ BitVec 32))
(declare-const symbol_6 (_ BitVec 32))
(declare-const symbol_453 (_ BitVec 32))
(declare-const symbol_282 (_ BitVec 32))
(declare-const symbol_202 (_ BitVec 32))
(declare-const symbol_83 (_ BitVec 32))
(declare-const symbol_508 (_ BitVec 32))
(declare-const symbol_177 (_ BitVec 32))
(declare-const symbol_122 (_ BitVec 32))
(declare-const symbol_18 (_ BitVec 32))
(declare-const symbol_537 (_ BitVec 32))
(declare-const symbol_363 (_ BitVec 32))
(declare-const symbol_211 (_ BitVec 32))
(declare-const symbol_533 (_ BitVec 32))
(declare-const symbol_445 (_ BitVec 32))
(declare-const symbol_402 (_ BitVec 32))
(declare-const symbol_313 (_ BitVec 32))
(declare-const symbol_169 (_ BitVec 32))
(declare-const symbol_37 (_ BitVec 32))
(declare-const symbol_339 (_ BitVec 32))
(declare-const symbol_412 (_ BitVec 32))
(declare-const symbol_502 (_ BitVec 32))
(declare-const symbol_51 (_ BitVec 32))
(declare-const symbol_217 (_ BitVec 32))
(declare-const symbol_500 (_ BitVec 32))
(declare-const symbol_59 (_ BitVec 32))
(declare-const symbol_165 (_ BitVec 32))
(declare-const symbol_376 (_ BitVec 32))
(declare-const symbol_437 (_ BitVec 32))
(declare-const symbol_87 (_ BitVec 32))
(declare-const symbol_213 (_ BitVec 32))
(assert (= symbol_541 (_ bv5 32)))
(assert (not (not (= symbol_541 (_ bv13 32)))))
(assert (not (not (= symbol_539 (_ bv13 32)))))
(assert (not (not (= symbol_537 (_ bv13 32)))))
(assert (not (not (= symbol_535 (_ bv13 32)))))
(assert (not (not (= symbol_533 (_ bv13 32)))))
(assert (not (not (= symbol_531 (_ bv13 32)))))
(assert (not (not (= symbol_529 (_ bv13 32)))))
(assert (not (not (= symbol_527 (_ bv13 32)))))
(assert (not (not (= symbol_525 (_ bv13 32)))))
(assert (not (not (= symbol_523 (_ bv13 32)))))
(assert (not (not (= symbol_521 (_ bv13 32)))))
(assert (not (not (= symbol_520 (_ bv13 32)))))
(assert (not (not (= symbol_518 (_ bv13 32)))))
(assert (not (not (= symbol_516 (_ bv13 32)))))
(assert (not (not (= symbol_514 (_ bv13 32)))))
(assert (not (not (= symbol_512 (_ bv13 32)))))
(assert (not (not (= symbol_510 (_ bv13 32)))))
(assert (not (not (= symbol_508 (_ bv13 32)))))
(assert (not (not (= symbol_506 (_ bv13 32)))))
(assert (not (not (= symbol_504 (_ bv13 32)))))
(assert (not (not (= symbol_502 (_ bv13 32)))))
(assert (not (not (= symbol_500 (_ bv13 32)))))
(assert (not (not (= symbol_498 (_ bv13 32)))))
(assert (not (not (= symbol_496 (_ bv13 32)))))
(assert (not (not (= symbol_494 (_ bv13 32)))))
(assert (not (not (= symbol_493 (_ bv13 32)))))
(assert (not (not (= symbol_491 (_ bv13 32)))))
(assert (not (not (= symbol_489 (_ bv13 32)))))
(assert (not (not (= symbol_487 (_ bv13 32)))))
(assert (not (not (= symbol_485 (_ bv13 32)))))
(assert (not (not (= symbol_483 (_ bv13 32)))))
(assert (not (not (= symbol_481 (_ bv13 32)))))
(assert (not (not (= symbol_479 (_ bv13 32)))))
(assert (not (not (= symbol_477 (_ bv13 32)))))
(assert (not (not (= symbol_475 (_ bv13 32)))))
(assert (not (not (= symbol_473 (_ bv13 32)))))
(assert (not (not (= symbol_471 (_ bv13 32)))))
(assert (not (not (= symbol_469 (_ bv13 32)))))
(assert (not (not (= symbol_467 (_ bv13 32)))))
(assert (not (not (= symbol_465 (_ bv13 32)))))
(assert (not (not (= symbol_463 (_ bv13 32)))))
(assert (not (not (= symbol_461 (_ bv13 32)))))
(assert (not (not (= symbol_459 (_ bv13 32)))))
(assert (not (not (= symbol_457 (_ bv13 32)))))
(assert (not (not (= symbol_455 (_ bv13 32)))))
(assert (not (not (= symbol_453 (_ bv13 32)))))
(assert (not (not (= symbol_451 (_ bv13 32)))))
(assert (not (not (= symbol_449 (_ bv13 32)))))
(assert (not (not (= symbol_447 (_ bv13 32)))))
(assert (not (not (= symbol_445 (_ bv13 32)))))
(assert (not (not (= symbol_443 (_ bv13 32)))))
(assert (not (not (= symbol_441 (_ bv13 32)))))
(assert (not (not (= symbol_439 (_ bv13 32)))))
(assert (not (not (= symbol_437 (_ bv13 32)))))
(assert (not (not (= symbol_435 (_ bv13 32)))))
(assert (not (not (= symbol_433 (_ bv13 32)))))
(assert (not (not (= symbol_431 (_ bv13 32)))))
(assert (not (not (= symbol_429 (_ bv13 32)))))
(assert (not (not (= symbol_427 (_ bv13 32)))))
(assert (not (not (= symbol_425 (_ bv13 32)))))
(assert (not (not (= symbol_423 (_ bv13 32)))))
(assert (not (not (= symbol_422 (_ bv13 32)))))
(assert (not (not (= symbol_420 (_ bv13 32)))))
(assert (not (not (= symbol_418 (_ bv13 32)))))
(assert (not (not (= symbol_416 (_ bv13 32)))))
(assert (not (not (= symbol_414 (_ bv13 32)))))
(assert (not (not (= symbol_412 (_ bv13 32)))))
(assert (not (not (= symbol_410 (_ bv13 32)))))
(assert (not (not (= symbol_408 (_ bv13 32)))))
(assert (not (not (= symbol_406 (_ bv13 32)))))
(assert (not (not (= symbol_404 (_ bv13 32)))))
(assert (not (not (= symbol_402 (_ bv13 32)))))
(assert (not (not (= symbol_400 (_ bv13 32)))))
(assert (not (not (= symbol_398 (_ bv13 32)))))
(assert (not (not (= symbol_396 (_ bv13 32)))))
(assert (not (not (= symbol_394 (_ bv13 32)))))
(assert (not (not (= symbol_392 (_ bv13 32)))))
(assert (not (not (= symbol_390 (_ bv13 32)))))
(assert (not (not (= symbol_388 (_ bv13 32)))))
(assert (not (not (= symbol_386 (_ bv13 32)))))
(assert (not (not (= symbol_384 (_ bv13 32)))))
(assert (not (not (= symbol_382 (_ bv13 32)))))
(assert (not (not (= symbol_380 (_ bv13 32)))))
(assert (not (not (= symbol_378 (_ bv13 32)))))
(assert (not (not (= symbol_376 (_ bv13 32)))))
(assert (not (not (= symbol_374 (_ bv13 32)))))
(assert (not (not (= symbol_372 (_ bv13 32)))))
(assert (not (not (= symbol_370 (_ bv13 32)))))
(assert (not (not (= symbol_369 (_ bv13 32)))))
(assert (not (not (= symbol_367 (_ bv13 32)))))
(assert (not (not (= symbol_365 (_ bv13 32)))))
(assert (not (not (= symbol_363 (_ bv13 32)))))
(assert (not (not (= symbol_361 (_ bv13 32)))))
(assert (not (not (= symbol_359 (_ bv13 32)))))
(assert (not (not (= symbol_358 (_ bv13 32)))))
(assert (not (not (= symbol_356 (_ bv13 32)))))
(assert (not (not (= symbol_354 (_ bv13 32)))))
(assert (not (not (= symbol_352 (_ bv13 32)))))
(assert (not (not (= symbol_350 (_ bv13 32)))))
(assert (not (not (= symbol_348 (_ bv13 32)))))
(assert (not (not (= symbol_346 (_ bv13 32)))))
(assert (not (not (= symbol_345 (_ bv13 32)))))
(assert (not (not (= symbol_343 (_ bv13 32)))))
(assert (not (not (= symbol_341 (_ bv13 32)))))
(assert (not (not (= symbol_339 (_ bv13 32)))))
(assert (not (not (= symbol_337 (_ bv13 32)))))
(assert (not (not (= symbol_335 (_ bv13 32)))))
(assert (not (not (= symbol_333 (_ bv13 32)))))
(assert (not (not (= symbol_331 (_ bv13 32)))))
(assert (not (not (= symbol_329 (_ bv13 32)))))
(assert (not (not (= symbol_327 (_ bv13 32)))))
(assert (not (not (= symbol_325 (_ bv13 32)))))
(assert (not (not (= symbol_323 (_ bv13 32)))))
(assert (not (not (= symbol_321 (_ bv13 32)))))
(assert (not (not (= symbol_319 (_ bv13 32)))))
(assert (not (not (= symbol_317 (_ bv13 32)))))
(assert (not (not (= symbol_315 (_ bv13 32)))))
(assert (not (not (= symbol_313 (_ bv13 32)))))
(assert (not (not (= symbol_311 (_ bv13 32)))))
(assert (not (not (= symbol_309 (_ bv13 32)))))
(assert (not (not (= symbol_307 (_ bv13 32)))))
(assert (not (not (= symbol_305 (_ bv13 32)))))
(assert (not (not (= symbol_303 (_ bv13 32)))))
(assert (not (not (= symbol_301 (_ bv13 32)))))
(assert (not (not (= symbol_300 (_ bv13 32)))))
(assert (not (not (= symbol_297 (_ bv13 32)))))
(assert (not (not (= symbol_295 (_ bv13 32)))))
(assert (not (not (= symbol_293 (_ bv13 32)))))
(assert (not (not (= symbol_291 (_ bv13 32)))))
(assert (not (not (= symbol_289 (_ bv13 32)))))
(assert (not (not (= symbol_287 (_ bv13 32)))))
(assert (not (not (= symbol_284 (_ bv13 32)))))
(assert (not (not (= symbol_282 (_ bv13 32)))))
(assert (not (not (= symbol_280 (_ bv13 32)))))
(assert (not (not (= symbol_278 (_ bv13 32)))))
(assert (not (not (= symbol_276 (_ bv13 32)))))
(assert (not (not (= symbol_273 (_ bv13 32)))))
(assert (not (not (= symbol_270 (_ bv13 32)))))
(assert (not (not (= symbol_268 (_ bv13 32)))))
(assert (not (not (= symbol_266 (_ bv13 32)))))
(assert (not (not (= symbol_263 (_ bv13 32)))))
(assert (not (not (= symbol_261 (_ bv13 32)))))
(assert (not (not (= symbol_259 (_ bv13 32)))))
(assert (not (not (= symbol_257 (_ bv13 32)))))
(assert (not (not (= symbol_255 (_ bv13 32)))))
(assert (not (not (= symbol_253 (_ bv13 32)))))
(assert (not (not (= symbol_251 (_ bv13 32)))))
(assert (not (not (= symbol_250 (_ bv13 32)))))
(assert (not (not (= symbol_248 (_ bv13 32)))))
(assert (not (not (= symbol_245 (_ bv13 32)))))
(assert (not (not (= symbol_244 (_ bv13 32)))))
(assert (not (not (= symbol_242 (_ bv13 32)))))
(assert (not (not (= symbol_240 (_ bv13 32)))))
(assert (not (not (= symbol_238 (_ bv13 32)))))
(assert (not (not (= symbol_236 (_ bv13 32)))))
(assert (not (not (= symbol_234 (_ bv13 32)))))
(assert (not (not (= symbol_232 (_ bv13 32)))))
(assert (not (not (= symbol_230 (_ bv13 32)))))
(assert (not (not (= symbol_228 (_ bv13 32)))))
(assert (not (not (= symbol_226 (_ bv13 32)))))
(assert (not (not (= symbol_225 (_ bv13 32)))))
(assert (not (not (= symbol_223 (_ bv13 32)))))
(assert (not (not (= symbol_221 (_ bv13 32)))))
(assert (not (not (= symbol_219 (_ bv13 32)))))
(assert (not (not (= symbol_217 (_ bv13 32)))))
(assert (not (not (= symbol_215 (_ bv13 32)))))
(assert (not (not (= symbol_213 (_ bv13 32)))))
(assert (not (not (= symbol_211 (_ bv13 32)))))
(assert (not (not (= symbol_209 (_ bv13 32)))))
(assert (not (not (= symbol_206 (_ bv13 32)))))
(assert (not (not (= symbol_204 (_ bv13 32)))))
(assert (not (not (= symbol_202 (_ bv13 32)))))
(assert (not (not (= symbol_200 (_ bv13 32)))))
(assert (not (not (= symbol_199 (_ bv13 32)))))
(assert (not (not (= symbol_197 (_ bv13 32)))))
(assert (not (not (= symbol_195 (_ bv13 32)))))
(assert (not (not (= symbol_193 (_ bv13 32)))))
(assert (not (not (= symbol_191 (_ bv13 32)))))
(assert (not (not (= symbol_189 (_ bv13 32)))))
(assert (not (not (= symbol_187 (_ bv13 32)))))
(assert (not (not (= symbol_185 (_ bv13 32)))))
(assert (not (not (= symbol_183 (_ bv13 32)))))
(assert (not (not (= symbol_181 (_ bv13 32)))))
(assert (not (not (= symbol_179 (_ bv13 32)))))
(assert (not (not (= symbol_177 (_ bv13 32)))))
(assert (not (not (= symbol_175 (_ bv13 32)))))
(assert (not (not (= symbol_173 (_ bv13 32)))))
(assert (not (not (= symbol_171 (_ bv13 32)))))
(assert (not (not (= symbol_169 (_ bv13 32)))))
(assert (not (not (= symbol_167 (_ bv13 32)))))
(assert (not (not (= symbol_165 (_ bv13 32)))))
(assert (not (not (= symbol_163 (_ bv13 32)))))
(assert (not (not (= symbol_161 (_ bv13 32)))))
(assert (not (not (= symbol_160 (_ bv13 32)))))
(assert (not (not (= symbol_158 (_ bv13 32)))))
(assert (not (not (= symbol_156 (_ bv13 32)))))
(assert (not (not (= symbol_153 (_ bv13 32)))))
(assert (not (not (= symbol_151 (_ bv13 32)))))
(assert (not (not (= symbol_149 (_ bv13 32)))))
(assert (not (not (= symbol_147 (_ bv13 32)))))
(assert (not (not (= symbol_145 (_ bv13 32)))))
(assert (not (not (= symbol_143 (_ bv13 32)))))
(assert (not (not (= symbol_141 (_ bv13 32)))))
(assert (not (not (= symbol_138 (_ bv13 32)))))
(assert (not (not (= symbol_137 (_ bv13 32)))))
(assert (not (not (= symbol_135 (_ bv13 32)))))
(assert (not (not (= symbol_133 (_ bv13 32)))))
(assert (not (not (= symbol_130 (_ bv13 32)))))
(assert (not (not (= symbol_128 (_ bv13 32)))))
(assert (not (not (= symbol_126 (_ bv13 32)))))
(assert (not (not (= symbol_124 (_ bv13 32)))))
(assert (not (not (= symbol_122 (_ bv13 32)))))
(assert (not (not (= symbol_120 (_ bv13 32)))))
(assert (not (not (= symbol_118 (_ bv13 32)))))
(assert (not (not (= symbol_116 (_ bv13 32)))))
(assert (not (not (= symbol_114 (_ bv13 32)))))
(assert (not (not (= symbol_112 (_ bv13 32)))))
(assert (not (not (= symbol_110 (_ bv13 32)))))
(assert (not (not (= symbol_108 (_ bv13 32)))))
(assert (not (not (= symbol_106 (_ bv13 32)))))
(assert (not (not (= symbol_104 (_ bv13 32)))))
(assert (not (not (= symbol_102 (_ bv13 32)))))
(assert (not (not (= symbol_100 (_ bv13 32)))))
(assert (not (not (= symbol_98 (_ bv13 32)))))
(assert (not (not (= symbol_96 (_ bv13 32)))))
(assert (not (not (= symbol_94 (_ bv13 32)))))
(assert (not (not (= symbol_92 (_ bv13 32)))))
(assert (not (not (= symbol_90 (_ bv13 32)))))
(assert (not (not (= symbol_87 (_ bv13 32)))))
(assert (not (not (= symbol_85 (_ bv13 32)))))
(assert (not (not (= symbol_83 (_ bv13 32)))))
(assert (not (not (= symbol_81 (_ bv13 32)))))
(assert (not (not (= symbol_78 (_ bv13 32)))))
(assert (not (not (= symbol_76 (_ bv13 32)))))
(assert (not (not (= symbol_74 (_ bv13 32)))))
(assert (not (not (= symbol_72 (_ bv13 32)))))
(assert (not (not (= symbol_69 (_ bv13 32)))))
(assert (not (not (= symbol_67 (_ bv13 32)))))
(assert (not (not (= symbol_65 (_ bv13 32)))))
(assert (not (not (= symbol_63 (_ bv13 32)))))
(assert (not (not (= symbol_61 (_ bv13 32)))))
(assert (not (not (= symbol_59 (_ bv13 32)))))
(assert (not (not (= symbol_57 (_ bv13 32)))))
(assert (not (not (= symbol_55 (_ bv13 32)))))
(assert (not (not (= symbol_53 (_ bv13 32)))))
(assert (not (not (= symbol_51 (_ bv13 32)))))
(assert (not (not (= symbol_48 (_ bv13 32)))))
(assert (not (not (= symbol_47 (_ bv13 32)))))
(assert (not (not (= symbol_44 (_ bv13 32)))))
(assert (not (not (= symbol_42 (_ bv13 32)))))
(assert (not (not (= symbol_40 (_ bv13 32)))))
(assert (not (not (= symbol_39 (_ bv13 32)))))
(assert (not (not (= symbol_37 (_ bv13 32)))))
(assert (not (not (= symbol_34 (_ bv13 32)))))
(assert (not (not (= symbol_32 (_ bv13 32)))))
(assert (not (not (= symbol_30 (_ bv13 32)))))
(assert (not (not (= symbol_28 (_ bv13 32)))))
(assert (not (not (= symbol_26 (_ bv13 32)))))
(assert (not (not (= symbol_24 (_ bv13 32)))))
(assert (not (not (= symbol_22 (_ bv13 32)))))
(assert (not (not (= symbol_20 (_ bv13 32)))))
(assert (not (not (= symbol_18 (_ bv13 32)))))
(assert (not (not (= symbol_15 (_ bv13 32)))))
(assert (not (not (= symbol_14 (_ bv13 32)))))
(assert (not (not (= symbol_12 (_ bv13 32)))))
(assert (not (not (= symbol_10 (_ bv13 32)))))
(assert (not (not (= symbol_8 (_ bv13 32)))))
(assert (not (not (= symbol_6 (_ bv13 32)))))
(assert (not (not (= symbol_4 (_ bv13 32)))))
(assert (not (not (= symbol_2 (_ bv13 32)))))
(assert (not (not (= symbol_0 (_ bv1 32)))))
(assert (not (= symbol_0 (_ bv13 32))))
(check-sat)